true true true
presolving:
presolving (0 rounds: 0 fast, 0 medium, 0 exhaustive):
 0 deleted vars, 0 deleted constraints, 0 added constraints, 0 tightened bounds, 0 added holes, 0 changed sides, 0 changed coefficients
 0 implications, 0 cliques
presolved problem has 58 variables (58 bin, 0 int, 0 impl, 0 cont) and 51 constraints
     51 constraints of type <linear>
transformed objective value is always integral (scale: 1)
Presolving Time: 0.00

 time | node  | left  |LP iter|LP it/n|mem/heur|mdpt |vars |cons |rows |cuts |sepa|confs|strbr|  dualbound   | primalbound  |  gap   | compl. 
p 0.0s|     1 |     0 |     0 |     - |shiftand|   0 |  58 |  51 |  51 |   0 |  0 |   0 |   0 |      --      | 7.000000e+00 |    Inf | unknown
 time | node  | left  |LP iter|LP it/n|mem/heur|mdpt |vars |cons |rows |cuts |sepa|confs|strbr|  dualbound   | primalbound  |  gap   | compl. 
  0.1s|     1 |     0 |    34 |     - |  3953k |   0 |1047 |  51 |  51 |   0 |  0 |   0 |   0 | 1.000000e+00 | 7.000000e+00 | 600.00%| unknown
 time | node  | left  |LP iter|LP it/n|mem/heur|mdpt |vars |cons |rows |cuts |sepa|confs|strbr|  dualbound   | primalbound  |  gap   | compl. 
  919s|     1 |     0 |  1063 |     - |    19M |   0 |5251 |  51 |  51 |   0 |  0 |   0 |   0 | 6.000000e+00 | 7.000000e+00 |  16.67%| unknown
 time | node  | left  |LP iter|LP it/n|mem/heur|mdpt |vars |cons |rows |cuts |sepa|confs|strbr|  dualbound   | primalbound  |  gap   | compl. 
  920s|     1 |     2 |  3423 |     - |    20M |   0 |5251 |  51 |  51 |   0 |  1 |   0 |   0 | 6.000000e+00 | 7.000000e+00 |  16.67%| unknown
 time | node  | left  |LP iter|LP it/n|mem/heur|mdpt |vars |cons |rows |cuts |sepa|confs|strbr|  dualbound   | primalbound  |  gap   | compl. 
 1369s|     2 |     3 |  3444 |  21.0 |    20M |   1 |5252 |  51 |  51 |   0 |  1 |   0 |   0 | 6.000000e+00 | 7.000000e+00 |  16.67%| unknown
 time | node  | left  |LP iter|LP it/n|mem/heur|mdpt |vars |cons |rows |cuts |sepa|confs|strbr|  dualbound   | primalbound  |  gap   | compl. 
 2387s|     3 |     4 |  3524 |  50.5 |    21M |   2 |5304 |  51 |  51 |   0 |  1 |   0 |   0 | 6.000000e+00 | 7.000000e+00 |  16.67%| unknown
 time | node  | left  |LP iter|LP it/n|mem/heur|mdpt |vars |cons |rows |cuts |sepa|confs|strbr|  dualbound   | primalbound  |  gap   | compl. 
 3020s|     4 |     5 |  3629 |  68.7 |    21M |   3 |5324 |  51 |  51 |   0 |  1 |   0 |   0 | 6.000000e+00 | 7.000000e+00 |  16.67%| unknown
 time | node  | left  |LP iter|LP it/n|mem/heur|mdpt |vars |cons |rows |cuts |sepa|confs|strbr|  dualbound   | primalbound  |  gap   | compl. 
 3423s|     5 |     6 |  3645 |  55.5 |    21M |   4 |5325 |  51 |  51 |   0 |  1 |   0 |   0 | 6.000000e+00 | 7.000000e+00 |  16.67%| unknown
 time | node  | left  |LP iter|LP it/n|mem/heur|mdpt |vars |cons |rows |cuts |sepa|confs|strbr|  dualbound   | primalbound  |  gap   | compl. 
 3704s|     6 |     7 |  5294 | 374.2 |    27M |   4 |6459 |  51 |  51 |   0 |  1 |   0 |   0 | 6.000000e+00 | 7.000000e+00 |  16.67%| unknown
 time | node  | left  |LP iter|LP it/n|mem/heur|mdpt |vars |cons |rows |cuts |sepa|confs|strbr|  dualbound   | primalbound  |  gap   | compl. 
 3704s|     7 |     6 |  5413 | 331.7 |    27M |   5 |6469 |  51 |  51 |   0 |  0 |   0 |   0 | 6.000000e+00 | 7.000000e+00 |  16.67%| unknown
 time | node  | left  |LP iter|LP it/n|mem/heur|mdpt |vars |cons |rows |cuts |sepa|confs|strbr|  dualbound   | primalbound  |  gap   | compl. 
 3899s|     8 |     7 |  5418 | 285.0 |    27M |   5 |6469 |  51 |  51 |   0 |  1 |   0 |   0 | 6.000000e+00 | 7.000000e+00 |  16.67%|   1.15%
 time | node  | left  |LP iter|LP it/n|mem/heur|mdpt |vars |cons |rows |cuts |sepa|confs|strbr|  dualbound   | primalbound  |  gap   | compl. 
 4695s|     9 |     8 |  5515 | 261.5 |    27M |   6 |6536 |  51 |  51 |   0 |  1 |   0 |   0 | 6.000000e+00 | 7.000000e+00 |  16.67%|   1.15%
 time | node  | left  |LP iter|LP it/n|mem/heur|mdpt |vars |cons |rows |cuts |sepa|confs|strbr|  dualbound   | primalbound  |  gap   | compl. 
 5145s|    10 |     9 |  5642 | 246.6 |    28M |   6 |6573 |  51 |  51 |   0 |  1 |   0 |   0 | 6.000000e+00 | 7.000000e+00 |  16.67%|   1.15%
 time | node  | left  |LP iter|LP it/n|mem/heur|mdpt |vars |cons |rows |cuts |sepa|confs|strbr|  dualbound   | primalbound  |  gap   | compl. 
 5145s|    11 |     8 |  5838 | 241.5 |    28M |   7 |6595 |  51 |  51 |   0 |  0 |   0 |   0 | 6.000000e+00 | 7.000000e+00 |  16.67%|   1.15%
 time | node  | left  |LP iter|LP it/n|mem/heur|mdpt |vars |cons |rows |cuts |sepa|confs|strbr|  dualbound   | primalbound  |  gap   | compl. 
 5288s|    12 |     9 |  5863 | 221.8 |    28M |   7 |6595 |  51 |  51 |   0 |  1 |   0 |   0 | 6.000000e+00 | 7.000000e+00 |  16.67%|   1.43%
 time | node  | left  |LP iter|LP it/n|mem/heur|mdpt |vars |cons |rows |cuts |sepa|confs|strbr|  dualbound   | primalbound  |  gap   | compl. 
 5579s|    13 |    10 |  5946 | 210.2 |    28M |   8 |6606 |  51 |  51 |   0 |  1 |   0 |   0 | 6.000000e+00 | 7.000000e+00 |  16.67%|   1.43%
 time | node  | left  |LP iter|LP it/n|mem/heur|mdpt |vars |cons |rows |cuts |sepa|confs|strbr|  dualbound   | primalbound  |  gap   | compl. 
 5896s|    14 |    11 |  5962 | 195.3 |    28M |   9 |6607 |  51 |  51 |   0 |  1 |   0 |   0 | 6.000000e+00 | 7.000000e+00 |  16.67%|   1.43%
 time | node  | left  |LP iter|LP it/n|mem/heur|mdpt |vars |cons |rows |cuts |sepa|confs|strbr|  dualbound   | primalbound  |  gap   | compl. 
 6335s|    15 |    10 |  6348 | 208.9 |    29M |   9 |7012 |  51 |  51 |   0 |  0 |   0 |   0 | 6.000000e+00 | 7.000000e+00 |  16.67%|   1.43%
 time | node  | left  |LP iter|LP it/n|mem/heur|mdpt |vars |cons |rows |cuts |sepa|confs|strbr|  dualbound   | primalbound  |  gap   | compl. 
 6728s|    16 |    11 |  6470 | 203.1 |    30M |   9 |7048 |  51 |  51 |   0 |  1 |   0 |   0 | 6.000000e+00 | 7.000000e+00 |  16.67%|   1.50%
 time | node  | left  |LP iter|LP it/n|mem/heur|mdpt |vars |cons |rows |cuts |sepa|confs|strbr|  dualbound   | primalbound  |  gap   | compl. 
 6819s|    17 |    12 |  6580 | 197.3 |    31M |  10 |7062 |  51 |  51 |   0 |  1 |   0 |   0 | 6.000000e+00 | 7.000000e+00 |  16.67%|   1.50%
 time | node  | left  |LP iter|LP it/n|mem/heur|mdpt |vars |cons |rows |cuts |sepa|confs|strbr|  dualbound   | primalbound  |  gap   | compl. 
 6865s|    18 |    13 |  6581 | 185.8 |    31M |  11 |7062 |  51 |  51 |   0 |  1 |   0 |   0 | 6.000000e+00 | 7.000000e+00 |  16.67%|   1.50%
 time | node  | left  |LP iter|LP it/n|mem/heur|mdpt |vars |cons |rows |cuts |sepa|confs|strbr|  dualbound   | primalbound  |  gap   | compl. 
 6982s|    19 |    14 |  6841 | 189.9 |    31M |  12 |7422 |  51 |  51 |   0 |  1 |   0 |   0 | 6.000000e+00 | 7.000000e+00 |  16.67%|   1.50%
 time | node  | left  |LP iter|LP it/n|mem/heur|mdpt |vars |cons |rows |cuts |sepa|confs|strbr|  dualbound   | primalbound  |  gap   | compl. 
 7169s|    20 |    15 |  7355 | 206.9 |    34M |  13 |8556 |  51 |  51 |   0 |  1 |   0 |   0 | 6.000000e+00 | 7.000000e+00 |  16.67%|   1.50%
 time | node  | left  |LP iter|LP it/n|mem/heur|mdpt |vars |cons |rows |cuts |sepa|confs|strbr|  dualbound   | primalbound  |  gap   | compl. 
 7169s|    21 |    14 |  7423 | 200.0 |    34M |  14 |8556 |  51 |  51 |   0 |  0 |   0 |   0 | 6.000000e+00 | 7.000000e+00 |  16.67%|   1.50%
 time | node  | left  |LP iter|LP it/n|mem/heur|mdpt |vars |cons |rows |cuts |sepa|confs|strbr|  dualbound   | primalbound  |  gap   | compl. 
 7170s|    22 |    13 |  7514 | 194.8 |    34M |  14 |8564 |  51 |  51 |   0 |  0 |   0 |   0 | 6.000000e+00 | 7.000000e+00 |  16.67%|   1.51%

SCIP Status        : solving was interrupted [time limit reached]
Solving Time (sec) : 7201.44
Solving Nodes      : 23
Primal Bound       : +7.00000000000000e+00 (2 solutions)
Dual Bound         : +6.00000000000000e+00
Gap                : 16.67 %
Running with parallel: True bidir: True symbreak: True
Number of Nodes:  51
48.92989875688837% holds
starting cheapest insertion heuristic
Heuristic without TSP improvement:  7
Heuristic without TSP improvement time:  0.1
Heuristic Sol:  7
Heuristic total time:  0.1
[[22, 46, 36, 37, 15, 27, 18], [40, 12, 30, 11, 17, 28, 19, 24], [41, 3, 29, 2, 38, 32, 10, 9, 4], [42, 20, 21, 5, 35, 13, 14, 43, 23], [50, 1, 33, 44, 8], [49, 26, 6, 31, 16], [48, 47, 25, 0, 7, 45, 39, 34]]
Instance path:  /home/htc/mghannam/SCRATCH/lccp-rust/data/t62_eil51.npcc
Timelimit:  7200
Heuristic without TSP improvement:  7
Heuristic without TSP improvement time:  0.1
Heuristic Sol:  7
Heuristic total time:  0.5
at 1 zero_duals: 44
at1, LP obj: 7.0 n_added_paths: 989
at 1 zero_duals: 25
at1, LP obj: 7.0 n_added_paths: 720
at 1 zero_duals: 18
at1, LP obj: 7.0 n_added_paths: 793
at 1 zero_duals: 12
at1, LP obj: 6.999999999999999 n_added_paths: 749
at 1 zero_duals: 4
at1, LP obj: 6.328778757053616 n_added_paths: 738
at 1 zero_duals: 4
at1, LP obj: 5.776523466081322 n_added_paths: 665
at1, LP obj: 5.555155578402855 n_added_paths: 241
at1, LP obj: 5.437390366305521 n_added_paths: 87
Switching to elementary pricing
at1, LP obj: 5.395518121183571 n_added_paths: 125
updated lowerbound from 1.0 to 5
at 1 zero_duals: 1
Switching to elementary pricing
at1, LP obj: 5.294825256155977 n_added_paths: 81
Switching to elementary pricing
at1, LP obj: 5.273924512884661 n_added_paths: 5
updated lowerbound from 5.0 to 6
Switching to elementary pricing
at1, LP obj: 5.273133494693726 n_added_paths: 0
Switching to elementary pricing
at2, LP obj: 5.277212216131558 n_added_paths: 1
Switching to elementary pricing
at2, LP obj: 5.277203647416414 n_added_paths: 0
Switching to elementary pricing
at4, LP obj: 5.283757859959501 n_added_paths: 47
Switching to elementary pricing
at4, LP obj: 5.281597377900775 n_added_paths: 3
Switching to elementary pricing
at4, LP obj: 5.281460421966183 n_added_paths: 1
Switching to elementary pricing
at4, LP obj: 5.281459419210722 n_added_paths: 1
Switching to elementary pricing
at4, LP obj: 5.281459419210722 n_added_paths: 0
Switching to elementary pricing
at6, LP obj: 5.292409632063783 n_added_paths: 15
Switching to elementary pricing
at6, LP obj: 5.289372780109783 n_added_paths: 5
Switching to elementary pricing
at6, LP obj: 5.289350361913796 n_added_paths: 0
Switching to elementary pricing
at8, LP obj: 5.289862204724409 n_added_paths: 1
Switching to elementary pricing
at8, LP obj: 5.289819376026273 n_added_paths: 0
at 9 zero_duals: 50
Switching to elementary pricing
at9, LP obj: 1e+20 n_added_paths: 44
updated lowerbound from 6.0 to 100000000000000000000
Switching to elementary pricing
at9, LP obj: 6.052139037433156 n_added_paths: 868
at 9 zero_duals: 4
at9, LP obj: 5.94858828487147 n_added_paths: 102
at 9 zero_duals: 2
Switching to elementary pricing
at9, LP obj: 5.895091434071222 n_added_paths: 95
at 9 zero_duals: 4
Switching to elementary pricing
at9, LP obj: 5.873559203632553 n_added_paths: 19
at 9 zero_duals: 2
Switching to elementary pricing
at9, LP obj: 5.869337979094077 n_added_paths: 6
at 9 zero_duals: 4
Switching to elementary pricing
at9, LP obj: 5.868965517241379 n_added_paths: 0
at 11 zero_duals: 49
Switching to elementary pricing
at11, LP obj: 1e+20 n_added_paths: 10
updated lowerbound from 6.0 to 100000000000000000000
at 11 zero_duals: 50
Switching to elementary pricing
at11, LP obj: 1e+20 n_added_paths: 0
updated lowerbound from 6.0 to 100000000000000000000
Switching to elementary pricing
at10, LP obj: 5.28986220472441 n_added_paths: 0
Switching to elementary pricing
at14, LP obj: 5.303317535545023 n_added_paths: 61
Switching to elementary pricing
at14, LP obj: 5.298472385428908 n_added_paths: 4
Switching to elementary pricing
at14, LP obj: 5.297992351816443 n_added_paths: 2
Switching to elementary pricing
at14, LP obj: 5.2979452054794525 n_added_paths: 0
Switching to elementary pricing
at15, LP obj: 5.31336110221083 n_added_paths: 32
Switching to elementary pricing
at15, LP obj: 5.308627951873014 n_added_paths: 5
Switching to elementary pricing
at15, LP obj: 5.308457711442786 n_added_paths: 0
at 18 zero_duals: 50
Switching to elementary pricing
at18, LP obj: 1e+20 n_added_paths: 22
updated lowerbound from 6.0 to 100000000000000000000
at 18 zero_duals: 50
Switching to elementary pricing
at18, LP obj: 1e+20 n_added_paths: 0
updated lowerbound from 6.0 to 100000000000000000000
Switching to elementary pricing
at19, LP obj: 5.310471351961614 n_added_paths: 0
Switching to elementary pricing
at20, LP obj: 5.327089020678402 n_added_paths: 11
Switching to elementary pricing
at20, LP obj: 5.325584624784758 n_added_paths: 0
Switching to elementary pricing
at22, LP obj: 5.3267252195734 n_added_paths: 1
Switching to elementary pricing
at22, LP obj: 5.3267252195734 n_added_paths: 0
Switching to elementary pricing
at23, LP obj: 6.211059743954481 n_added_paths: 381
Switching to elementary pricing
at23, LP obj: 6.139675815368511 n_added_paths: 22
Switching to elementary pricing
at23, LP obj: 6.133845100723645 n_added_paths: 2
updated lowerbound from 6.0 to 7
Switching to elementary pricing
at21, LP obj: 5.320063694267516 n_added_paths: 19
Switching to elementary pricing
at21, LP obj: 5.319710837754329 n_added_paths: 17
Switching to elementary pricing
at21, LP obj: 5.319390148553557 n_added_paths: 0
Switching to elementary pricing
at25, LP obj: 5.3545653622774445 n_added_paths: 14
Switching to elementary pricing
at25, LP obj: 5.354068820090098 n_added_paths: 0
Switching to elementary pricing
at28, LP obj: 5.354070981210856 n_added_paths: 0
at 30 zero_duals: 2
Switching to elementary pricing
at30, LP obj: 5.4165322580645165 n_added_paths: 356
Switching to elementary pricing
at30, LP obj: 5.376075378943056 n_added_paths: 4
Switching to elementary pricing
at30, LP obj: 5.375573299113614 n_added_paths: 0
at 32 zero_duals: 50
Switching to elementary pricing
at32, LP obj: 1e+20 n_added_paths: 49
updated lowerbound from 6.0 to 100000000000000000000
Switching to elementary pricing
at32, LP obj: 5.970178156467854 n_added_paths: 802
at 32 zero_duals: 3
Switching to elementary pricing
at32, LP obj: 5.707088321236686 n_added_paths: 248
at 32 zero_duals: 1
Switching to elementary pricing
at32, LP obj: 5.586866225780253 n_added_paths: 31
at 32 zero_duals: 2
Switching to elementary pricing
at32, LP obj: 5.5756532066508315 n_added_paths: 4
at 32 zero_duals: 1
Switching to elementary pricing
at32, LP obj: 5.572546753519647 n_added_paths: 0
at 34 zero_duals: 50
Switching to elementary pricing
at34, LP obj: 1e+20 n_added_paths: 0
updated lowerbound from 6.0 to 100000000000000000000
at 29 zero_duals: 49
Switching to elementary pricing
at29, LP obj: 1e+20 n_added_paths: 8
updated lowerbound from 6.0 to 100000000000000000000
at 29 zero_duals: 50
Switching to elementary pricing
at29, LP obj: 1e+20 n_added_paths: 0
updated lowerbound from 6.0 to 100000000000000000000
at 31 zero_duals: 2
Switching to elementary pricing
at31, LP obj: 5.384145088368269 n_added_paths: 103
Switching to elementary pricing
at31, LP obj: 5.3724216959511075 n_added_paths: 0
Best solution found:
t_[22, 18, 27, 46, 15, 37, 36, 22] 1.0 1.0
checking cycle [22, 18, 27, 46, 15, 37, 36, 22]
[22, 18, 27, 46, 15, 37, 36, 22] 89 71
t_[12, 19, 24, 40, 28, 29, 17, 11, 30, 12] 1.0 1.0
checking cycle [12, 19, 24, 40, 28, 29, 17, 11, 30, 12]
[12, 19, 24, 40, 28, 29, 17, 11, 30, 12] 99 83
t_[41, 3, 2, 38, 32, 10, 9, 4, 41] 1.0 1.0
checking cycle [41, 3, 2, 38, 32, 10, 9, 4, 41]
[41, 3, 2, 38, 32, 10, 9, 4, 41] 97 91
t_[20, 39, 21, 5, 35, 13, 42, 14, 43, 23, 20] 1.0 1.0
checking cycle [20, 39, 21, 5, 35, 13, 42, 14, 43, 23, 20]
[20, 39, 21, 5, 35, 13, 42, 14, 43, 23, 20] 95 93
t_[50, 1, 33, 44, 8, 50] 1.0 1.0
checking cycle [50, 1, 33, 44, 8, 50]
[50, 1, 33, 44, 8, 50] 74 58
t_[49, 26, 6, 31, 16, 49] 1.0 1.0
checking cycle [49, 26, 6, 31, 16, 49]
[49, 26, 6, 31, 16, 49] 77 49
t_[48, 47, 25, 0, 7, 45, 34, 48] 1.0 1.0
checking cycle [48, 47, 25, 0, 7, 45, 34, 48]
[48, 47, 25, 0, 7, 45, 34, 48] 87 57
